p cnf 14 24
14 -6 0
4 -13 9 -10 -11 6 2 8 -12 0
-4 -8 -11 0
6 -10 -3 1 0
-10 8 0
-9 -10 1 13 -8 -5 -6 3 -2 -12 0
-4 11 -12 0
-9 -11 -5 -7 -1 3 14 -10 12 0
-1 -7 3 -13 -12 -11 14 -9 0
-9 -4 2 -10 -14 -7 -11 1 13 0
11 -7 13 10 5 6 -9 -14 1 8 4 0
14 -6 -9 0
5 8 1 0
7 10 8 5 -12 -14 -9 13 0
12 3 9 7 -1 8 -11 -2 -6 0
9 8 10 -6 -4 13 0
-13 7 -10 12 1 -9 -11 4 5 3 2 14 0
3 -2 11 6 0
-6 10 -12 -2 0
9 2 -13 3 -10 0
12 11 13 9 -10 7 4 3 0
-10 -14 -7 -3 11 2 -4 -13 8 6 0
-1 7 14 -10 -6 -3 9 0
-11 14 -10 -9 -2 4 8 1 6 -7 0
